Route #1: 103 5 76 104 30 105 75 74 34 130 50 9 62 38
Route #2: 118 21 79 84 128 29 129 53 127 16 126 2 100
Route #3: 83 131 20 35 85 36 115 121 3 59 101 51 32
Route #4: 119 1 22 80 120 81 138 57 98 24 96 132 27 102
Route #5: 23 69 7 61 114 99 43 86 97 14 133 110
Route #6: 18 55 134 13 67 95 25 58 68 6 48
Route #7: 112 60 8 26 113 140 82 31 28 116 70 11 78
Route #8: 49 90 108 37 63 17 147 142 135 143 109 4
Route #9: 92 93 42 64 19 94 88 40 136 41 66 111 141 149
Route #10: 146 148 150 87 137 44 52 15 45 91 72 33 124 122
Route #11: 123 71 10 54 39 89 117 73 106 125 65 107
Route #12: 12 145 144 56 47 139 46 77
Cost 1191
